; benchmark generated from python API
(set-info :status unknown)
(declare-datatypes ((RealState 0)) (((RMk1 (rval1 Real)) (RMk2 (rval2 Real)))))
 (assert
 (forall ((|v11:0| Real) )(exists ((|v10:1_st| RealState) (val!3072 Real) )(forall ((|v9:2| Real) )(exists ((|v8:3_st| RealState) (val!3073 Real) )(forall ((|v7:4| Real) )(exists ((|v6:5_st| RealState) (val!3074 Real) )(forall ((|v5:6| Real) )(exists ((|v4:7_st| RealState) (val!3075 Real) )(forall ((|v3:8| Real) )(exists ((|v2:9_st| RealState) (val!3076 Real) )(forall ((|v1:10| Real) )(exists ((|v0:11_st| RealState) (val!3077 Real) )(let ((?x1188 (- 1.0)))
 (let ((?x2803 (rval2 |v8:3_st|)))
 (let ((?x418 (* 18.0 ?x2803)))
 (let ((?x750 (* 13.0 |v5:6|)))
 (let ((?x361 (+ (+ (+ (* (- 8.0) (rval2 |v0:11_st|)) (* (- 19.0) ?x2803)) ?x750) ?x418)))
 (let ((?x2685 (- 15.0)))
 (let ((?x1663 (rval2 |v2:9_st|)))
 (let ((?x756 (* 16.0 ?x1663)))
 (let ((?x632 (+ (+ (+ (* 5.0 |v11:0|) (* 5.0 (rval2 |v0:11_st|))) (* (- 5.0) ?x1663)) ?x756)))
 (let ((?x1898 (rval2 |v4:7_st|)))
 (let ((?x1983 (* 2.0 ?x1898)))
 (let ((?x2769 (+ (+ (+ (* 10.0 ?x2803) (* (- 7.0) |v7:4|)) (* 6.0 |v5:6|)) ?x1983)))
 (let ((?x2792 (- 6.0)))
 (let ((?x2115 (- 20.0)))
 (let ((?x2132 (* ?x2115 ?x1898)))
 (let ((?x2091 (+ (+ (+ (* (- 4.0) ?x1663) (* 20.0 (rval2 |v10:1_st|))) ?x2132) (* (- 18.0) (rval2 |v10:1_st|)))))
 (let ((?x248 (+ (+ (+ (* 2.0 |v3:8|) (* (- 16.0) |v1:10|)) (* 2.0 (rval2 |v6:5_st|))) (* (- 18.0) |v3:8|))))
 (let (($x965 (or (or (<= ?x248 0.0) (<= ?x2091 ?x2792)) (or (<= ?x2769 11.0) (<= ?x632 ?x2685)))))
 (let ((?x2021 (+ (+ (+ (* 19.0 |v11:0|) (* 17.0 (rval2 |v6:5_st|))) (* 0.0 ?x2803)) (* (- 10.0) ?x2803))))
 (let ((?x2603 (+ (+ (+ (* 9.0 |v5:6|) (* (- 13.0) |v5:6|)) (* ?x2115 ?x1663)) (* (- 5.0) ?x2803))))
 (let ((?x2016 (* 5.0 |v7:4|)))
 (let ((?x2456 (+ (+ (+ (* 7.0 |v11:0|) (* (- 14.0) |v9:2|)) (* 4.0 |v5:6|)) ?x2016)))
 (let (($x552 (and (or (<= ?x2456 16.0) (and (<= ?x2603 16.0) (<= ?x2021 10.0))) $x965)))
 (let ((?x1757 (+ (+ (+ (* (- 16.0) (rval2 |v6:5_st|)) (* ?x2792 |v11:0|)) (* 12.0 |v9:2|)) (* (- 16.0) |v3:8|))))
 (let ((?x1334 (* 9.0 |v11:0|)))
 (let ((?x2924 (+ (+ (+ ?x756 (* (- 14.0) (rval2 |v10:1_st|))) (* (- 19.0) ?x1663)) ?x1334)))
 (let (($x856 (<= (+ (+ (+ (* 17.0 |v9:2|) ?x2132) (* 12.0 ?x1898)) (* 19.0 |v3:8|)) 18.0)))
 (let ((?x109 (- 2.0)))
 (let ((?x2382 (+ (+ (+ (* ?x2685 |v5:6|) (* (- 12.0) |v3:8|)) (* 5.0 |v5:6|)) (* 4.0 |v11:0|))))
 (let (($x1061 (and (or (<= ?x2382 ?x109) (and $x856 (<= ?x2924 18.0))) (<= ?x1757 8.0))))
 (let ((?x524 (- 18.0)))
 (let ((?x2247 (+ (+ (+ (* (- 11.0) (rval2 |v10:1_st|)) (* ?x2115 |v11:0|)) (* ?x2792 |v3:8|)) (* 4.0 |v9:2|))))
 (let ((?x2992 (- 12.0)))
 (let ((?x451 (rval2 |v6:5_st|)))
 (let ((?x195 (* 18.0 ?x451)))
 (let (($x2697 (or (<= (+ (+ (+ (* (- 11.0) |v5:6|) (* ?x2792 ?x1898)) ?x1898) ?x195) ?x2992) (<= ?x2247 ?x524))))
 (let ((?x1287 (+ (+ (+ (* (- 5.0) ?x451) (* 13.0 ?x1898)) (* 18.0 |v11:0|)) (* 8.0 ?x451))))
 (let ((?x2412 (- 3.0)))
 (let ((?x2837 (* ?x2412 ?x451)))
 (let ((?x2440 (+ (+ (+ (* 15.0 |v3:8|) (* 4.0 ?x451)) (* 13.0 (rval2 |v10:1_st|))) ?x2837)))
 (let ((?x1860 (+ (+ (+ (* (- 19.0) |v1:10|) (* 8.0 (rval2 |v0:11_st|))) (* 14.0 |v5:6|)) ?x2837)))
 (let ((?x1176 (- 13.0)))
 (let ((?x2316 (* ?x1176 |v7:4|)))
 (let (($x543 (<= (+ (+ (+ (* ?x2992 ?x1663) (* ?x2792 ?x451)) (* (- 5.0) |v1:10|)) ?x2316) 1.0)))
 (let ((?x2220 (+ (+ (+ (* 11.0 ?x1898) (* (- 10.0) |v5:6|)) ?x2803) (* (- 17.0) |v7:4|))))
 (let (($x1407 (or (and (<= ?x2220 ?x2992) (and $x543 (<= ?x1860 20.0))) (and (and (<= ?x2440 2.0) (<= ?x1287 0.0)) $x2697))))
 (let ((?x2196 (* 14.0 |v1:10|)))
 (let (($x531 (<= (+ (+ (+ (* 0.0 ?x451) (* 16.0 |v3:8|)) (* ?x2412 |v7:4|)) ?x2196) 6.0)))
 (let ((?x1887 (* 16.0 |v5:6|)))
 (let ((?x1512 (+ (+ (+ (* 0.0 |v7:4|) (* ?x2412 |v3:8|)) (* 15.0 (rval2 |v0:11_st|))) ?x1887)))
 (let ((?x1184 (+ (+ (+ (* ?x2685 |v11:0|) (* (- 4.0) ?x2803)) (* (- 16.0) |v1:10|)) (* 11.0 |v9:2|))))
 (let ((?x2234 (* 10.0 |v5:6|)))
 (let (($x1067 (<= (+ (+ (+ ?x451 (* 12.0 |v3:8|)) (* (- 8.0) |v3:8|)) ?x2234) 0.0)))
 (let ((?x2743 (* 14.0 |v11:0|)))
 (let ((?x2003 (* 15.0 |v9:2|)))
 (let ((?x138 (+ (+ (+ (* 8.0 (rval2 |v0:11_st|)) (* (- 4.0) (rval2 |v10:1_st|))) ?x2003) ?x2743)))
 (let (($x2219 (or (or (<= ?x138 12.0) $x1067) (or (<= ?x1184 3.0) (<= ?x1512 ?x109)))))
 (let ((?x2874 (* 12.0 |v11:0|)))
 (let ((?x1980 (+ (+ (+ (* 8.0 (rval2 |v0:11_st|)) (* 7.0 |v5:6|)) (* 12.0 ?x2803)) ?x2874)))
 (let ((?x1691 (* 6.0 |v11:0|)))
 (let (($x1376 (<= (+ (+ (+ (* 11.0 |v3:8|) (* ?x2685 |v1:10|)) (* 18.0 |v9:2|)) ?x1691) ?x2992)))
 (let ((?x1580 (- 16.0)))
 (let ((?x1351 (+ (+ (+ (* ?x109 |v1:10|) (* 9.0 |v7:4|)) (* ?x2685 |v3:8|)) (* (- 19.0) ?x1898))))
 (let ((?x2867 (+ (+ (+ (* (- 7.0) ?x451) ?x2316) (* 4.0 |v7:4|)) (* ?x1580 (rval2 |v10:1_st|)))))
 (let (($x2807 (and (and (<= ?x2867 17.0) (<= ?x1351 ?x1580)) (and $x1376 (<= ?x1980 ?x1176)))))
 (let ((?x2562 (+ (+ (+ (* ?x524 ?x451) (* 11.0 |v7:4|)) (* 7.0 (rval2 |v10:1_st|))) (* 0.0 |v11:0|))))
 (let ((?x1504 (+ (+ (+ (* (- 5.0) |v11:0|) (* ?x2115 ?x451)) (* ?x109 ?x1663)) (* 18.0 ?x1663))))
 (let ((?x2479 (+ (+ (+ (* 15.0 ?x451) (* 2.0 ?x2803)) (* (- 14.0) |v7:4|)) (* ?x524 |v9:2|))))
 (let ((?x721 (- 5.0)))
 (let ((?x608 (rval2 |v0:11_st|)))
 (let ((?x541 (* 19.0 ?x608)))
 (let (($x891 (and (<= (+ (+ (+ (* 7.0 ?x2803) (* 10.0 |v11:0|)) ?x418) ?x541) ?x721) (<= ?x2479 9.0))))
 (let ((?x217 (+ (+ (+ ?x1983 (* 9.0 (rval2 |v10:1_st|))) (* ?x1580 |v7:4|)) (* ?x721 |v3:8|))))
 (let ((?x2835 (+ (+ (+ (* (- 10.0) |v7:4|) (* 9.0 |v9:2|)) (* 6.0 |v9:2|)) (* (- 11.0) ?x1663))))
 (let ((?x2142 (+ (+ (+ (* ?x2792 |v9:2|) (* 18.0 ?x608)) (* 13.0 ?x608)) (* ?x1188 |v5:6|))))
 (let (($x839 (<= (+ (+ (+ (* ?x2992 |v7:4|) (* 3.0 ?x608)) ?x1691) (* 2.0 ?x451)) 15.0)))
 (let (($x928 (and (or $x839 (<= ?x2142 8.0)) (and (<= ?x2835 7.0) (<= ?x217 13.0)))))
 (let (($x326 (and (or $x928 (and $x891 (or (<= ?x1504 ?x1580) (<= ?x2562 7.0)))) (or $x2807 $x2219))))
 (let (($x1423 (not (= |v0:11_st| (RMk1 val!3077)))))
 (let (($x937 (not (= |v2:9_st| (RMk1 val!3076)))))
 (let (($x1277 (not (= |v4:7_st| (RMk1 val!3075)))))
 (let (($x1151 (not (= |v6:5_st| (RMk1 val!3074)))))
 (let (($x1011 (not (= |v8:3_st| (RMk1 val!3073)))))
 (let (($x439 (not (= |v10:1_st| (RMk1 val!3072)))))
 (and $x439 $x1011 $x1151 $x1277 $x937 $x1423 (or (and $x326 $x531) (or (or $x1407 $x1061) (or $x552 (<= ?x361 ?x1188))))))))))))))))))))))))))))))))))))))))))))))))))))))))))))))))))))))))))))))))))))))))))
 )
 )
 )
 )
 )
 )
 )
 )
 )
 )
 )
 )
(check-sat)
